
  32    4
  10   10   10   10

   0   0   0   0   0   5 2 4 6 8 11 
   1   1   0   1   1   2 15 3 
   6   6   1   0   7   2 10 5 
   5   4   3   5   0   3 15 10 7 
   3   0   5   2   2   3 31 12 9 
   1   5   0   6   4   4 16 15 13 10 
   4   4   0   4   5   4 31 29 14 12 
   4   5   5   0   6   2 13 10 
  10   0   7   5   3   3 17 16 13 
   8   5   0   5   4   4 23 19 17 14 
   5   0   3   6   3   2 17 13 
   4   4   3   4   0   6 30 28 23 19 18 16 
   9   3   0   3   3   3 29 23 14 
   1   0   4   3   4   6 30 28 26 21 20 18 
   3   3   2   5   0   5 29 28 26 24 21 
   3   4   3   3   0   3 26 24 21 
   5   3   4   0   3   3 29 26 24 
   8   4   3   0   2   2 24 22 
   8   2   6   0   1   1 20 
   2   4   5   5   0   2 27 24 
   7   0   5   5   5   1 25 
   4   3   0   3   5   1 25 
   9   4   3   2   0   1 26 
   9   9   0   2   4   1 32
   8   2   6   0   4   1 32
   4   5   6   7   0   1 32
  10   0   3   1   6   1 32
   4   4   0   5   6   1 32
   4   4   0   3   4   1 32
   6   2   0   7   6   1 32
   5   6   3   0   4   1 32
   0   0   0   0   0   0 
